\ SCIP STATISTICS
\   Problem name     : SetCover-100-150
\   Variables        : 150 (150 binary, 0 integer, 0 implicit integer, 0 continuous)
\   Constraints      : 100
Minimize
 Obj: +61 x0 +33 x1 +16 x2 +74 x3 +54 x4 +5 x5 +64 x6 +1 x7 +8 x8 +32 x9 +87 x10 +9 x11 +42 x12 +82 x13
      +69 x14 +78 x15 +17 x16 +74 x17 +98 x18 +56 x19 +88 x20 +50 x21 +9 x22 +7 x23 +48 x24 +74 x25 +7 x26
      +50 x27 +72 x28 +1 x29 +30 x30 +34 x31 +58 x32 +45 x33 +32 x34 +60 x35 +93 x36 +20 x37 +17 x38 +36 x39
      +93 x40 +59 x41 +71 x42 +73 x43 +93 x44 +45 x45 +75 x46 +37 x47 +38 x48 +1 x49 +82 x50 +78 x51 +2 x52
      +42 x53 +65 x54 +75 x55 +82 x56 +29 x57 +57 x58 +82 x59 +6 x60 +89 x61 +98 x62 +9 x63 +93 x64 +15 x65
      +93 x66 +93 x67 +5 x68 +93 x69 +98 x70 +26 x71 +83 x72 +51 x73 +26 x74 +2 x75 +24 x76 +28 x77 +45 x78
      +38 x79 +25 x80 +70 x81 +36 x82 +88 x83 +24 x84 +71 x85 +41 x86 +83 x87 +9 x88 +54 x89 +63 x90 +22 x91
      +11 x92 +25 x93 +14 x94 +57 x95 +23 x96 +74 x97 +68 x98 +51 x99 +88 x100 +77 x101 +76 x102 +63 x103
      +67 x104 +21 x105 +44 x106 +13 x107 +61 x108 +99 x109 +13 x110 +88 x111 +39 x112 +9 x113 +10 x114
      +61 x115 +99 x116 +23 x117 +50 x118 +58 x119 +80 x120 +100 x121 +47 x122 +55 x123 +39 x124 +46 x125
      +66 x126 +51 x127 +16 x128 +38 x129 +11 x130 +25 x131 +30 x132 +40 x133 +42 x134 +30 x135 +76 x136
      +39 x137 +79 x138 +37 x139 +91 x140 +88 x141 +14 x142 +38 x143 +25 x144 +87 x145 +66 x146 +73 x147
      +26 x148 +84 x149
Subject to
 c0: +1 x3 +1 x8 +1 x10 +1 x13 +1 x16 +1 x25 +1 x29 +1 x37 +1 x44 +1 x47 +1 x57 +1 x62 +1 x64 +1 x69 +1 x77
  +1 x87 +1 x102 +1 x109 +1 x113 +1 x118 +1 x121 +1 x130 +1 x135 +1 x142 +1 x144 >= +1
 c1: +1 x2 +1 x6 +1 x16 +1 x17 +1 x31 +1 x34 +1 x35 +1 x47 +1 x48 +1 x54 +1 x60 +1 x75 +1 x80 +1 x92 +1 x98
  +1 x102 +1 x104 +1 x105 +1 x110 +1 x117 +1 x120 +1 x125 +1 x132 +1 x148 >= +1
 c2: +1 x4 +1 x9 +1 x19 +1 x28 +1 x39 +1 x42 +1 x43 +1 x44 +1 x46 +1 x47 +1 x53 +1 x54 +1 x60 +1 x61 +1 x67
  +1 x69 +1 x75 +1 x77 +1 x87 +1 x88 +1 x95 +1 x102 +1 x113 +1 x125 +1 x130 +1 x134 +1 x138 +1 x148 >= +1
 c3: +1 x1 +1 x13 +1 x18 +1 x19 +1 x23 +1 x29 +1 x37 +1 x39 +1 x45 +1 x47 +1 x57 +1 x59 +1 x76 +1 x86
  +1 x87 +1 x89 +1 x97 +1 x105 +1 x108 +1 x128 +1 x134 +1 x139 +1 x142 +1 x145 +1 x146 +1 x149 >= +1
 c4: +1 x0 +1 x4 +1 x5 +1 x6 +1 x9 +1 x10 +1 x12 +1 x20 +1 x21 +1 x22 +1 x39 +1 x42 +1 x44 +1 x46 +1 x49
  +1 x57 +1 x73 +1 x78 +1 x80 +1 x81 +1 x84 +1 x91 +1 x93 +1 x98 +1 x102 +1 x104 +1 x105 +1 x116 +1 x120
  +1 x129 +1 x143 >= +1
 c5: +1 x0 +1 x9 +1 x15 +1 x21 +1 x27 +1 x30 +1 x31 +1 x32 +1 x37 +1 x38 +1 x51 +1 x64 +1 x68 +1 x85 +1 x89
  +1 x90 +1 x92 +1 x93 +1 x95 +1 x96 +1 x97 +1 x98 +1 x103 +1 x116 +1 x121 +1 x124 +1 x125 +1 x137 +1 x142
  +1 x144 +1 x148 >= +1
 c6: +1 x3 +1 x8 +1 x23 +1 x38 +1 x43 +1 x46 +1 x47 +1 x50 +1 x54 +1 x57 +1 x63 +1 x71 +1 x75 +1 x77 +1 x79
  +1 x82 +1 x83 +1 x85 +1 x87 +1 x91 +1 x94 +1 x96 +1 x100 +1 x108 +1 x110 +1 x119 +1 x127 +1 x128 +1 x131
  +1 x139 +1 x141 >= +1
 c7: +1 x3 +1 x11 +1 x17 +1 x20 +1 x21 +1 x22 +1 x28 +1 x36 +1 x42 +1 x55 +1 x66 +1 x67 +1 x68 +1 x83
  +1 x84 +1 x85 +1 x87 +1 x88 +1 x91 +1 x98 +1 x102 +1 x103 +1 x106 +1 x116 +1 x117 +1 x122 +1 x123 +1 x124
  +1 x126 +1 x129 +1 x143 >= +1
 c8: +1 x0 +1 x22 +1 x25 +1 x28 +1 x30 +1 x31 +1 x34 +1 x38 +1 x42 +1 x45 +1 x56 +1 x69 +1 x86 +1 x95
  +1 x102 +1 x103 +1 x107 +1 x110 +1 x114 +1 x123 +1 x135 +1 x146 +1 x147 >= +1
 c9: +1 x3 +1 x8 +1 x13 +1 x15 +1 x17 +1 x18 +1 x19 +1 x25 +1 x28 +1 x46 +1 x55 +1 x62 +1 x65 +1 x74 +1 x75
  +1 x80 +1 x81 +1 x90 +1 x93 +1 x96 +1 x99 +1 x109 +1 x111 +1 x117 +1 x118 +1 x122 +1 x125 +1 x126 +1 x127
  +1 x140 +1 x145 +1 x148 >= +1
 c10: +1 x2 +1 x9 +1 x23 +1 x28 +1 x34 +1 x40 +1 x45 +1 x47 +1 x63 +1 x72 +1 x81 +1 x85 +1 x94 +1 x110
  +1 x117 +1 x128 +1 x133 +1 x140 +1 x144 >= +1
 c11: +1 x4 +1 x5 +1 x9 +1 x13 +1 x17 +1 x20 +1 x23 +1 x25 +1 x27 +1 x32 +1 x56 +1 x60 +1 x62 +1 x63 +1 x65
  +1 x70 +1 x73 +1 x75 +1 x77 +1 x84 +1 x85 +1 x88 +1 x93 +1 x97 +1 x99 +1 x101 +1 x104 +1 x108 +1 x117
  +1 x119 +1 x126 +1 x128 +1 x134 +1 x136 +1 x140 +1 x143 +1 x147 >= +1
 c12: +1 x2 +1 x11 +1 x29 +1 x31 +1 x37 +1 x43 +1 x45 +1 x46 +1 x50 +1 x56 +1 x60 +1 x62 +1 x63 +1 x67
  +1 x69 +1 x70 +1 x72 +1 x73 +1 x74 +1 x78 +1 x85 +1 x87 +1 x89 +1 x100 +1 x110 +1 x124 +1 x126 +1 x130
  +1 x134 >= +1
 c13: +1 x2 +1 x4 +1 x6 +1 x7 +1 x20 +1 x33 +1 x39 +1 x40 +1 x43 +1 x45 +1 x59 +1 x60 +1 x69 +1 x74 +1 x81
  +1 x84 +1 x87 +1 x88 +1 x92 +1 x93 +1 x100 +1 x108 +1 x110 +1 x112 +1 x114 +1 x118 +1 x119 +1 x134 +1 x136
  +1 x137 +1 x139 +1 x149 >= +1
 c14: +1 x2 +1 x9 +1 x23 +1 x24 +1 x27 +1 x34 +1 x35 +1 x36 +1 x41 +1 x53 +1 x56 +1 x62 +1 x63 +1 x70
  +1 x73 +1 x76 +1 x77 +1 x78 +1 x81 +1 x92 +1 x95 +1 x103 +1 x116 +1 x118 +1 x119 +1 x122 +1 x124 +1 x126
  +1 x128 +1 x129 +1 x130 +1 x132 +1 x134 +1 x141 +1 x143 +1 x149 >= +1
 c15: +1 x1 +1 x6 +1 x9 +1 x11 +1 x12 +1 x15 +1 x23 +1 x24 +1 x25 +1 x31 +1 x38 +1 x57 +1 x58 +1 x64 +1 x68
  +1 x69 +1 x79 +1 x80 +1 x81 +1 x85 +1 x89 +1 x95 +1 x107 +1 x111 +1 x112 +1 x115 +1 x120 +1 x122 +1 x130
  +1 x134 +1 x138 +1 x141 +1 x142 +1 x147 >= +1
 c16: +1 x4 +1 x10 +1 x19 +1 x25 +1 x35 +1 x41 +1 x46 +1 x49 +1 x52 +1 x58 +1 x59 +1 x65 +1 x72 +1 x77
  +1 x84 +1 x95 +1 x98 +1 x101 +1 x102 +1 x111 +1 x117 +1 x120 +1 x121 +1 x130 >= +1
 c17: +1 x3 +1 x10 +1 x14 +1 x19 +1 x21 +1 x23 +1 x28 +1 x30 +1 x37 +1 x38 +1 x43 +1 x48 +1 x57 +1 x60
  +1 x65 +1 x67 +1 x86 +1 x87 +1 x93 +1 x100 +1 x102 +1 x108 +1 x112 +1 x113 +1 x128 +1 x130 +1 x131 +1 x133
  +1 x136 +1 x138 >= +1
 c18: +1 x0 +1 x6 +1 x8 +1 x11 +1 x18 +1 x20 +1 x22 +1 x40 +1 x41 +1 x43 +1 x50 +1 x51 +1 x55 +1 x61 +1 x63
  +1 x64 +1 x66 +1 x76 +1 x79 +1 x83 +1 x93 +1 x104 +1 x108 +1 x112 +1 x114 +1 x115 +1 x118 +1 x119 +1 x120
  +1 x135 +1 x141 >= +1
 c19: +1 x3 +1 x8 +1 x10 +1 x11 +1 x18 +1 x20 +1 x25 +1 x27 +1 x28 +1 x44 +1 x46 +1 x52 +1 x55 +1 x62
  +1 x64 +1 x68 +1 x72 +1 x74 +1 x84 +1 x90 +1 x97 +1 x114 +1 x123 +1 x128 +1 x129 +1 x139 +1 x141 +1 x142
  +1 x148 >= +1
 c20: +1 x0 +1 x8 +1 x9 +1 x10 +1 x25 +1 x29 +1 x34 +1 x35 +1 x41 +1 x45 +1 x47 +1 x56 +1 x57 +1 x59 +1 x81
  +1 x83 +1 x94 +1 x96 +1 x105 +1 x109 +1 x117 +1 x124 +1 x130 +1 x139 +1 x143 +1 x145 >= +1
 c21: +1 x3 +1 x7 +1 x15 +1 x18 +1 x20 +1 x21 +1 x29 +1 x38 +1 x45 +1 x47 +1 x52 +1 x53 +1 x54 +1 x56
  +1 x59 +1 x63 +1 x64 +1 x65 +1 x71 +1 x82 +1 x85 +1 x104 +1 x115 +1 x128 +1 x131 +1 x140 +1 x141 +1 x145
  +1 x148 >= +1
 c22: +1 x3 +1 x11 +1 x16 +1 x18 +1 x31 +1 x36 +1 x37 +1 x38 +1 x59 +1 x63 +1 x66 +1 x67 +1 x84 +1 x88
  +1 x90 +1 x95 +1 x99 +1 x105 +1 x112 +1 x116 +1 x119 +1 x121 +1 x136 +1 x139 +1 x140 +1 x141 >= +1
 c23: +1 x1 +1 x6 +1 x7 +1 x13 +1 x18 +1 x19 +1 x21 +1 x27 +1 x32 +1 x38 +1 x42 +1 x44 +1 x46 +1 x50 +1 x64
  +1 x67 +1 x71 +1 x72 +1 x74 +1 x86 +1 x97 +1 x100 +1 x105 +1 x107 +1 x112 +1 x116 +1 x122 +1 x125 +1 x136
  +1 x138 >= +1
 c24: +1 x2 +1 x13 +1 x16 +1 x27 +1 x32 +1 x39 +1 x59 +1 x61 +1 x65 +1 x68 +1 x70 +1 x87 +1 x95 +1 x100
  +1 x112 +1 x113 +1 x117 +1 x118 +1 x125 +1 x134 +1 x136 +1 x139 +1 x142 +1 x144 >= +1
 c25: +1 x3 +1 x14 +1 x15 +1 x18 +1 x22 +1 x26 +1 x28 +1 x30 +1 x31 +1 x44 +1 x50 +1 x53 +1 x56 +1 x58
  +1 x60 +1 x64 +1 x69 +1 x78 +1 x80 +1 x87 +1 x92 +1 x99 +1 x106 +1 x110 +1 x112 +1 x125 +1 x127 +1 x128
  +1 x133 +1 x134 +1 x146 >= +1
 c26: +1 x2 +1 x6 +1 x10 +1 x12 +1 x15 +1 x29 +1 x32 +1 x40 +1 x44 +1 x47 +1 x60 +1 x64 +1 x65 +1 x67
  +1 x69 +1 x71 +1 x87 +1 x88 +1 x89 +1 x102 +1 x104 +1 x109 +1 x116 +1 x118 +1 x126 +1 x130 +1 x131 +1 x135
  +1 x137 +1 x139 +1 x141 >= +1
 c27: +1 x1 +1 x7 +1 x11 +1 x15 +1 x17 +1 x19 +1 x35 +1 x42 +1 x47 +1 x59 +1 x68 +1 x70 +1 x73 +1 x75
  +1 x76 +1 x77 +1 x78 +1 x80 +1 x85 +1 x87 +1 x88 +1 x98 +1 x99 +1 x111 +1 x116 +1 x118 +1 x123 +1 x126
  +1 x131 +1 x132 +1 x137 +1 x139 +1 x142 +1 x143 >= +1
 c28: +1 x0 +1 x5 +1 x6 +1 x12 +1 x13 +1 x18 +1 x35 +1 x52 +1 x60 +1 x76 +1 x83 +1 x91 +1 x98 +1 x100
  +1 x101 +1 x103 +1 x104 +1 x109 +1 x114 +1 x115 +1 x117 +1 x118 +1 x119 +1 x120 +1 x126 +1 x134 +1 x135
  +1 x146 >= +1
 c29: +1 x2 +1 x6 +1 x10 +1 x20 +1 x39 +1 x40 +1 x51 +1 x55 +1 x62 +1 x63 +1 x65 +1 x67 +1 x75 +1 x80
  +1 x84 +1 x92 +1 x101 +1 x105 +1 x118 +1 x130 +1 x135 +1 x141 >= +1
 c30: +1 x0 +1 x5 +1 x25 +1 x32 +1 x37 +1 x49 +1 x50 +1 x53 +1 x54 +1 x55 +1 x57 +1 x65 +1 x66 +1 x70
  +1 x71 +1 x72 +1 x84 +1 x86 +1 x89 +1 x93 +1 x108 +1 x109 +1 x114 +1 x117 +1 x131 +1 x133 +1 x137 +1 x139
  +1 x141 >= +1
 c31: +1 x2 +1 x9 +1 x16 +1 x21 +1 x22 +1 x29 +1 x30 +1 x31 +1 x46 +1 x47 +1 x58 +1 x64 +1 x65 +1 x67
  +1 x69 +1 x71 +1 x76 +1 x83 +1 x85 +1 x96 +1 x98 +1 x100 +1 x108 +1 x120 +1 x125 +1 x132 +1 x133 +1 x141
  +1 x143 >= +1
 c32: +1 x2 +1 x11 +1 x15 +1 x22 +1 x25 +1 x26 +1 x32 +1 x47 +1 x48 +1 x50 +1 x54 +1 x57 +1 x60 +1 x63
  +1 x67 +1 x71 +1 x72 +1 x79 +1 x82 +1 x86 +1 x87 +1 x95 +1 x107 +1 x111 +1 x113 +1 x125 +1 x126 +1 x127
  +1 x137 +1 x143 +1 x146 >= +1
 c33: +1 x3 +1 x16 +1 x33 +1 x39 +1 x43 +1 x46 +1 x61 +1 x62 +1 x67 +1 x68 +1 x73 +1 x80 +1 x88 +1 x90
  +1 x99 +1 x109 +1 x110 +1 x112 +1 x125 +1 x131 +1 x144 +1 x148 >= +1
 c34: +1 x0 +1 x11 +1 x12 +1 x18 +1 x20 +1 x23 +1 x34 +1 x38 +1 x40 +1 x47 +1 x48 +1 x51 +1 x54 +1 x55
  +1 x58 +1 x60 +1 x62 +1 x65 +1 x73 +1 x75 +1 x83 +1 x85 +1 x97 +1 x100 +1 x107 +1 x129 +1 x132 +1 x141
  >= +1
 c35: +1 x3 +1 x5 +1 x7 +1 x8 +1 x10 +1 x12 +1 x17 +1 x20 +1 x21 +1 x29 +1 x31 +1 x37 +1 x39 +1 x52 +1 x57
  +1 x61 +1 x70 +1 x75 +1 x80 +1 x81 +1 x83 +1 x93 +1 x101 +1 x102 +1 x111 +1 x117 +1 x122 +1 x126 +1 x131
  +1 x135 +1 x136 +1 x138 +1 x147 +1 x148 >= +1
 c36: +1 x4 +1 x10 +1 x11 +1 x20 +1 x21 +1 x24 +1 x25 +1 x29 +1 x35 +1 x36 +1 x39 +1 x43 +1 x45 +1 x60
  +1 x66 +1 x67 +1 x74 +1 x81 +1 x87 +1 x97 +1 x103 +1 x106 +1 x113 +1 x115 +1 x116 +1 x120 +1 x124 +1 x125
  +1 x127 +1 x136 +1 x137 +1 x141 +1 x143 +1 x144 +1 x145 +1 x149 >= +1
 c37: +1 x1 +1 x14 +1 x16 +1 x22 +1 x24 +1 x36 +1 x42 +1 x60 +1 x68 +1 x77 +1 x80 +1 x81 +1 x83 +1 x91
  +1 x95 +1 x100 +1 x105 +1 x114 +1 x122 +1 x139 +1 x141 +1 x143 +1 x147 >= +1
 c38: +1 x1 +1 x15 +1 x17 +1 x18 +1 x31 +1 x32 +1 x33 +1 x51 +1 x54 +1 x58 +1 x65 +1 x75 +1 x81 +1 x84
  +1 x91 +1 x92 +1 x101 +1 x104 +1 x111 +1 x112 +1 x116 +1 x120 +1 x126 +1 x128 +1 x130 +1 x132 +1 x146
  >= +1
 c39: +1 x0 +1 x10 +1 x14 +1 x19 +1 x20 +1 x21 +1 x29 +1 x44 +1 x47 +1 x52 +1 x53 +1 x61 +1 x82 +1 x91
  +1 x93 +1 x96 +1 x97 +1 x98 +1 x109 +1 x116 +1 x120 +1 x123 +1 x130 +1 x133 +1 x134 +1 x135 +1 x139
  +1 x143 >= +1
 c40: +1 x1 +1 x5 +1 x9 +1 x14 +1 x17 +1 x26 +1 x40 +1 x43 +1 x51 +1 x55 +1 x56 +1 x58 +1 x68 +1 x86 +1 x96
  +1 x97 +1 x105 +1 x119 +1 x120 +1 x134 +1 x136 +1 x139 +1 x141 +1 x142 +1 x147 >= +1
 c41: +1 x1 +1 x14 +1 x15 +1 x21 +1 x23 +1 x28 +1 x29 +1 x34 +1 x49 +1 x52 +1 x65 +1 x70 +1 x76 +1 x83
  +1 x87 +1 x90 +1 x93 +1 x101 +1 x111 +1 x113 +1 x114 +1 x119 +1 x120 +1 x122 +1 x125 +1 x130 +1 x133
  +1 x134 +1 x135 +1 x136 +1 x137 +1 x142 +1 x143 >= +1
 c42: +1 x1 +1 x6 +1 x14 +1 x18 +1 x21 +1 x22 +1 x38 +1 x46 +1 x47 +1 x55 +1 x57 +1 x64 +1 x66 +1 x67
  +1 x69 +1 x72 +1 x77 +1 x80 +1 x83 +1 x85 +1 x87 +1 x94 +1 x97 +1 x99 +1 x101 +1 x105 +1 x116 +1 x120
  +1 x138 >= +1
 c43: +1 x0 +1 x7 +1 x10 +1 x11 +1 x12 +1 x14 +1 x16 +1 x24 +1 x25 +1 x29 +1 x30 +1 x38 +1 x41 +1 x68
  +1 x77 +1 x89 +1 x103 +1 x108 +1 x111 +1 x114 +1 x115 +1 x116 +1 x118 +1 x120 +1 x125 +1 x137 +1 x147
  >= +1
 c44: +1 x0 +1 x4 +1 x5 +1 x7 +1 x16 +1 x20 +1 x25 +1 x30 +1 x34 +1 x35 +1 x43 +1 x49 +1 x57 +1 x63 +1 x71
  +1 x73 +1 x77 +1 x78 +1 x81 +1 x87 +1 x91 +1 x92 +1 x96 +1 x105 +1 x107 +1 x108 +1 x114 +1 x120 +1 x122
  +1 x123 +1 x125 +1 x131 +1 x137 +1 x141 +1 x145 +1 x146 >= +1
 c45: +1 x0 +1 x8 +1 x9 +1 x11 +1 x15 +1 x17 +1 x20 +1 x23 +1 x33 +1 x36 +1 x37 +1 x47 +1 x54 +1 x58 +1 x59
  +1 x61 +1 x66 +1 x74 +1 x76 +1 x81 +1 x89 +1 x91 +1 x98 +1 x99 +1 x101 +1 x115 +1 x124 +1 x125 +1 x127
  +1 x134 +1 x143 +1 x144 +1 x148 >= +1
 c46: +1 x3 +1 x13 +1 x14 +1 x20 +1 x21 +1 x22 +1 x25 +1 x29 +1 x32 +1 x33 +1 x36 +1 x37 +1 x49 +1 x59
  +1 x61 +1 x67 +1 x68 +1 x69 +1 x74 +1 x75 +1 x80 +1 x81 +1 x85 +1 x86 +1 x87 +1 x97 +1 x102 +1 x105
  +1 x107 +1 x110 +1 x113 +1 x114 +1 x116 +1 x122 +1 x135 +1 x145 +1 x147 >= +1
 c47: +1 x0 +1 x7 +1 x9 +1 x10 +1 x13 +1 x14 +1 x23 +1 x29 +1 x45 +1 x54 +1 x59 +1 x78 +1 x79 +1 x85 +1 x86
  +1 x91 +1 x94 +1 x97 +1 x102 +1 x107 +1 x108 +1 x112 +1 x119 +1 x123 +1 x131 +1 x135 +1 x146 >= +1
 c48: +1 x2 +1 x4 +1 x6 +1 x7 +1 x16 +1 x18 +1 x23 +1 x28 +1 x30 +1 x31 +1 x32 +1 x36 +1 x37 +1 x44 +1 x53
  +1 x57 +1 x59 +1 x61 +1 x65 +1 x66 +1 x67 +1 x68 +1 x71 +1 x74 +1 x76 +1 x79 +1 x80 +1 x91 +1 x102 +1 x107
  +1 x112 +1 x122 +1 x124 +1 x129 +1 x135 +1 x138 +1 x146 +1 x147 +1 x149 >= +1
 c49: +1 x0 +1 x4 +1 x10 +1 x11 +1 x13 +1 x19 +1 x30 +1 x37 +1 x52 +1 x59 +1 x69 +1 x76 +1 x83 +1 x100
  +1 x101 +1 x107 +1 x111 +1 x114 +1 x118 +1 x120 +1 x130 +1 x133 +1 x136 +1 x140 +1 x142 +1 x144 >= +1
 c50: +1 x3 +1 x8 +1 x9 +1 x17 +1 x18 +1 x24 +1 x32 +1 x35 +1 x36 +1 x47 +1 x48 +1 x50 +1 x52 +1 x57 +1 x59
  +1 x68 +1 x70 +1 x73 +1 x76 +1 x77 +1 x81 +1 x82 +1 x85 +1 x86 +1 x87 +1 x100 +1 x109 +1 x116 +1 x124
  +1 x129 +1 x130 +1 x134 +1 x143 +1 x144 >= +1
 c51: +1 x1 +1 x11 +1 x14 +1 x17 +1 x18 +1 x23 +1 x26 +1 x29 +1 x39 +1 x48 +1 x49 +1 x52 +1 x59 +1 x63
  +1 x67 +1 x69 +1 x76 +1 x83 +1 x84 +1 x91 +1 x94 +1 x108 +1 x118 +1 x132 +1 x133 +1 x138 +1 x142 +1 x145
  +1 x148 >= +1
 c52: +1 x2 +1 x6 +1 x7 +1 x8 +1 x10 +1 x14 +1 x23 +1 x24 +1 x27 +1 x29 +1 x32 +1 x34 +1 x36 +1 x46 +1 x49
  +1 x63 +1 x75 +1 x101 +1 x106 +1 x107 +1 x119 +1 x130 +1 x131 +1 x134 +1 x139 >= +1
 c53: +1 x2 +1 x9 +1 x16 +1 x19 +1 x20 +1 x23 +1 x24 +1 x25 +1 x26 +1 x41 +1 x55 +1 x69 +1 x102 +1 x104
  +1 x108 +1 x130 +1 x131 +1 x137 +1 x139 +1 x144 +1 x146 >= +1
 c54: +1 x4 +1 x7 +1 x8 +1 x10 +1 x14 +1 x18 +1 x37 +1 x41 +1 x42 +1 x44 +1 x48 +1 x50 +1 x60 +1 x62 +1 x71
  +1 x76 +1 x85 +1 x110 +1 x114 +1 x123 +1 x127 +1 x131 +1 x136 +1 x145 +1 x148 +1 x149 >= +1
 c55: +1 x0 +1 x12 +1 x16 +1 x18 +1 x19 +1 x20 +1 x21 +1 x30 +1 x40 +1 x58 +1 x70 +1 x92 +1 x94 +1 x96
  +1 x99 +1 x104 +1 x106 +1 x116 +1 x117 +1 x118 +1 x122 +1 x123 +1 x129 +1 x130 +1 x132 +1 x133 +1 x135
  +1 x142 +1 x145 >= +1
 c56: +1 x2 +1 x5 +1 x21 +1 x24 +1 x35 +1 x41 +1 x47 +1 x54 +1 x55 +1 x59 +1 x60 +1 x64 +1 x68 +1 x76
  +1 x79 +1 x85 +1 x86 +1 x93 +1 x103 +1 x107 +1 x112 +1 x114 +1 x120 +1 x122 +1 x123 +1 x130 +1 x131
  +1 x133 +1 x135 +1 x146 >= +1
 c57: +1 x1 +1 x8 +1 x14 +1 x26 +1 x39 +1 x42 +1 x43 +1 x49 +1 x51 +1 x54 +1 x60 +1 x69 +1 x70 +1 x74
  +1 x80 +1 x81 +1 x91 +1 x103 +1 x106 +1 x108 +1 x117 +1 x120 +1 x125 +1 x129 +1 x132 +1 x137 +1 x138
  +1 x141 +1 x147 +1 x148 >= +1
 c58: +1 x0 +1 x6 +1 x8 +1 x17 +1 x27 +1 x29 +1 x30 +1 x49 +1 x52 +1 x56 +1 x59 +1 x69 +1 x71 +1 x75 +1 x77
  +1 x78 +1 x87 +1 x91 +1 x96 +1 x117 +1 x119 +1 x120 +1 x124 +1 x125 +1 x130 +1 x138 +1 x142 +1 x143
  +1 x144 +1 x145 +1 x148 >= +1
 c59: +1 x1 +1 x4 +1 x16 +1 x17 +1 x23 +1 x24 +1 x28 +1 x34 +1 x35 +1 x48 +1 x50 +1 x58 +1 x71 +1 x73
  +1 x80 +1 x83 +1 x87 +1 x92 +1 x106 +1 x120 +1 x124 +1 x136 +1 x137 +1 x139 +1 x141 +1 x149 >= +1
 c60: +1 x1 +1 x7 +1 x9 +1 x10 +1 x16 +1 x33 +1 x45 +1 x46 +1 x60 +1 x63 +1 x82 +1 x87 +1 x92 +1 x94 +1 x112
  +1 x117 +1 x124 +1 x134 +1 x140 +1 x142 +1 x148 >= +1
 c61: +1 x0 +1 x5 +1 x9 +1 x13 +1 x21 +1 x22 +1 x40 +1 x46 +1 x51 +1 x57 +1 x61 +1 x64 +1 x92 +1 x93 +1 x98
  +1 x101 +1 x104 +1 x109 +1 x116 +1 x127 +1 x129 +1 x130 +1 x132 +1 x137 +1 x139 +1 x149 >= +1
 c62: +1 x1 +1 x7 +1 x9 +1 x11 +1 x13 +1 x24 +1 x25 +1 x38 +1 x42 +1 x43 +1 x45 +1 x47 +1 x59 +1 x67 +1 x69
  +1 x73 +1 x76 +1 x80 +1 x91 +1 x92 +1 x99 +1 x107 +1 x108 +1 x109 +1 x112 +1 x114 +1 x122 +1 x128 +1 x133
  +1 x136 +1 x137 +1 x140 +1 x144 +1 x148 >= +1
 c63: +1 x3 +1 x8 +1 x9 +1 x10 +1 x24 +1 x26 +1 x31 +1 x44 +1 x45 +1 x57 +1 x65 +1 x66 +1 x69 +1 x91 +1 x94
  +1 x99 +1 x102 +1 x103 +1 x110 +1 x113 +1 x121 +1 x123 +1 x129 +1 x131 +1 x132 +1 x140 +1 x145 +1 x146
  +1 x147 >= +1
 c64: +1 x0 +1 x14 +1 x17 +1 x18 +1 x27 +1 x34 +1 x37 +1 x41 +1 x53 +1 x58 +1 x60 +1 x66 +1 x67 +1 x70
  +1 x72 +1 x82 +1 x91 +1 x94 +1 x99 +1 x100 +1 x115 +1 x119 +1 x120 +1 x126 +1 x138 +1 x145 >= +1
 c65: +1 x0 +1 x8 +1 x10 +1 x21 +1 x22 +1 x29 +1 x32 +1 x48 +1 x49 +1 x55 +1 x56 +1 x57 +1 x59 +1 x65
  +1 x82 +1 x83 +1 x84 +1 x98 +1 x104 +1 x111 +1 x127 +1 x128 +1 x130 +1 x136 +1 x137 +1 x139 +1 x140
  +1 x141 +1 x149 >= +1
 c66: +1 x1 +1 x8 +1 x12 +1 x14 +1 x19 +1 x20 +1 x21 +1 x26 +1 x27 +1 x33 +1 x35 +1 x43 +1 x44 +1 x63
  +1 x82 +1 x83 +1 x85 +1 x88 +1 x89 +1 x96 +1 x101 +1 x102 +1 x110 +1 x111 +1 x114 +1 x118 +1 x119 +1 x126
  +1 x133 +1 x134 +1 x135 +1 x143 +1 x149 >= +1
 c67: +1 x2 +1 x4 +1 x5 +1 x15 +1 x27 +1 x30 +1 x32 +1 x33 +1 x35 +1 x37 +1 x44 +1 x52 +1 x54 +1 x59 +1 x60
  +1 x66 +1 x67 +1 x79 +1 x81 +1 x85 +1 x86 +1 x96 +1 x100 +1 x101 +1 x103 +1 x105 +1 x109 +1 x111 +1 x115
  +1 x116 +1 x123 +1 x125 +1 x126 +1 x129 +1 x132 +1 x135 >= +1
 c68: +1 x3 +1 x5 +1 x15 +1 x19 +1 x21 +1 x22 +1 x32 +1 x35 +1 x36 +1 x38 +1 x39 +1 x45 +1 x47 +1 x48
  +1 x49 +1 x50 +1 x52 +1 x54 +1 x59 +1 x61 +1 x65 +1 x70 +1 x71 +1 x72 +1 x75 +1 x76 +1 x78 +1 x87 +1 x94
  +1 x98 +1 x102 +1 x103 +1 x104 +1 x106 +1 x116 +1 x117 +1 x126 +1 x134 +1 x139 +1 x145 >= +1
 c69: +1 x3 +1 x9 +1 x13 +1 x15 +1 x17 +1 x19 +1 x31 +1 x35 +1 x39 +1 x40 +1 x41 +1 x46 +1 x50 +1 x60
  +1 x61 +1 x81 +1 x82 +1 x84 +1 x85 +1 x89 +1 x94 +1 x95 +1 x105 +1 x108 +1 x112 +1 x121 +1 x124 +1 x128
  +1 x132 +1 x137 +1 x138 +1 x143 >= +1
 c70: +1 x3 +1 x9 +1 x13 +1 x25 +1 x27 +1 x28 +1 x33 +1 x35 +1 x44 +1 x49 +1 x51 +1 x56 +1 x57 +1 x64
  +1 x69 +1 x75 +1 x79 +1 x82 +1 x83 +1 x85 +1 x91 +1 x99 +1 x103 +1 x112 +1 x113 +1 x124 +1 x135 +1 x139
  >= +1
 c71: +1 x3 +1 x7 +1 x22 +1 x23 +1 x33 +1 x50 +1 x52 +1 x58 +1 x61 +1 x70 +1 x80 +1 x88 +1 x100 +1 x103
  +1 x107 +1 x116 +1 x117 +1 x122 +1 x127 +1 x138 +1 x145 +1 x147 >= +1
 c72: +1 x0 +1 x25 +1 x26 +1 x28 +1 x29 +1 x36 +1 x37 +1 x38 +1 x41 +1 x45 +1 x49 +1 x53 +1 x59 +1 x63
  +1 x66 +1 x67 +1 x73 +1 x80 +1 x82 +1 x86 +1 x95 +1 x98 +1 x101 +1 x102 +1 x103 +1 x109 +1 x112 +1 x120
  +1 x121 +1 x123 +1 x129 +1 x134 +1 x139 +1 x143 +1 x147 >= +1
 c73: +1 x2 +1 x8 +1 x14 +1 x17 +1 x26 +1 x37 +1 x40 +1 x42 +1 x44 +1 x50 +1 x54 +1 x64 +1 x66 +1 x69
  +1 x70 +1 x74 +1 x75 +1 x83 +1 x84 +1 x86 +1 x87 +1 x88 +1 x95 +1 x96 +1 x98 +1 x105 +1 x113 +1 x117
  +1 x124 +1 x126 +1 x131 +1 x144 +1 x146 +1 x148 +1 x149 >= +1
 c74: +1 x1 +1 x4 +1 x9 +1 x13 +1 x21 +1 x24 +1 x27 +1 x31 +1 x33 +1 x38 +1 x39 +1 x41 +1 x50 +1 x52 +1 x55
  +1 x56 +1 x59 +1 x65 +1 x66 +1 x70 +1 x71 +1 x72 +1 x76 +1 x83 +1 x84 +1 x93 +1 x94 +1 x101 +1 x105
  +1 x107 +1 x112 +1 x117 +1 x120 +1 x127 +1 x128 +1 x138 +1 x139 >= +1
 c75: +1 x2 +1 x5 +1 x6 +1 x8 +1 x10 +1 x13 +1 x14 +1 x17 +1 x21 +1 x24 +1 x26 +1 x30 +1 x31 +1 x32 +1 x38
  +1 x42 +1 x50 +1 x59 +1 x61 +1 x72 +1 x81 +1 x85 +1 x86 +1 x107 +1 x116 +1 x122 +1 x127 +1 x149 >= +1
 c76: +1 x0 +1 x4 +1 x6 +1 x20 +1 x24 +1 x26 +1 x28 +1 x30 +1 x33 +1 x50 +1 x54 +1 x58 +1 x65 +1 x70 +1 x71
  +1 x72 +1 x74 +1 x75 +1 x78 +1 x80 +1 x82 +1 x87 +1 x103 +1 x114 +1 x116 +1 x122 +1 x123 +1 x131 +1 x144
  >= +1
 c77: +1 x1 +1 x6 +1 x10 +1 x12 +1 x16 +1 x31 +1 x32 +1 x37 +1 x39 +1 x54 +1 x55 +1 x60 +1 x76 +1 x81
  +1 x89 +1 x98 +1 x99 +1 x104 +1 x110 +1 x111 +1 x119 +1 x124 +1 x128 +1 x129 +1 x140 +1 x142 +1 x148
  +1 x149 >= +1
 c78: +1 x0 +1 x4 +1 x11 +1 x15 +1 x22 +1 x27 +1 x28 +1 x31 +1 x35 +1 x52 +1 x53 +1 x55 +1 x75 +1 x82
  +1 x83 +1 x87 +1 x88 +1 x89 +1 x91 +1 x94 +1 x100 +1 x105 +1 x108 +1 x111 +1 x113 +1 x118 +1 x137 +1 x139
  +1 x142 +1 x147 +1 x149 >= +1
 c79: +1 x2 +1 x8 +1 x13 +1 x14 +1 x17 +1 x28 +1 x31 +1 x33 +1 x34 +1 x42 +1 x57 +1 x62 +1 x64 +1 x65
  +1 x79 +1 x80 +1 x81 +1 x89 +1 x94 +1 x121 +1 x130 +1 x134 +1 x145 >= +1
 c80: +1 x1 +1 x7 +1 x9 +1 x14 +1 x21 +1 x24 +1 x35 +1 x36 +1 x40 +1 x49 +1 x50 +1 x64 +1 x70 +1 x79 +1 x80
  +1 x84 +1 x87 +1 x94 +1 x97 +1 x98 +1 x110 +1 x117 +1 x118 +1 x119 +1 x120 +1 x128 +1 x132 +1 x137 +1 x139
  +1 x140 +1 x146 +1 x149 >= +1
 c81: +1 x3 +1 x4 +1 x5 +1 x11 +1 x17 +1 x21 +1 x23 +1 x24 +1 x27 +1 x28 +1 x29 +1 x36 +1 x37 +1 x44 +1 x45
  +1 x48 +1 x52 +1 x53 +1 x62 +1 x64 +1 x66 +1 x72 +1 x81 +1 x84 +1 x86 +1 x89 +1 x103 +1 x111 +1 x116
  +1 x118 +1 x120 +1 x121 +1 x126 +1 x128 +1 x134 +1 x136 +1 x140 >= +1
 c82: +1 x1 +1 x7 +1 x12 +1 x15 +1 x18 +1 x20 +1 x35 +1 x39 +1 x41 +1 x47 +1 x52 +1 x60 +1 x62 +1 x69
  +1 x75 +1 x82 +1 x88 +1 x89 +1 x95 +1 x96 +1 x100 +1 x101 +1 x104 +1 x110 +1 x111 +1 x114 +1 x115 +1 x126
  +1 x142 +1 x149 >= +1
 c83: +1 x0 +1 x7 +1 x11 +1 x16 +1 x19 +1 x22 +1 x23 +1 x40 +1 x41 +1 x49 +1 x51 +1 x53 +1 x55 +1 x59
  +1 x65 +1 x71 +1 x73 +1 x83 +1 x87 +1 x92 +1 x93 +1 x94 +1 x100 +1 x101 +1 x116 +1 x122 +1 x124 +1 x125
  +1 x135 +1 x137 +1 x142 +1 x145 >= +1
 c84: +1 x1 +1 x12 +1 x16 +1 x18 +1 x19 +1 x23 +1 x34 +1 x35 +1 x41 +1 x44 +1 x45 +1 x48 +1 x55 +1 x57
  +1 x60 +1 x63 +1 x64 +1 x67 +1 x69 +1 x76 +1 x78 +1 x79 +1 x81 +1 x83 +1 x91 +1 x95 +1 x96 +1 x98 +1 x109
  +1 x116 +1 x127 +1 x129 +1 x131 +1 x134 +1 x138 +1 x139 +1 x148 >= +1
 c85: +1 x1 +1 x8 +1 x18 +1 x22 +1 x25 +1 x30 +1 x34 +1 x40 +1 x46 +1 x54 +1 x56 +1 x58 +1 x62 +1 x67
  +1 x76 +1 x79 +1 x80 +1 x86 +1 x88 +1 x94 +1 x96 +1 x105 +1 x111 +1 x112 +1 x113 +1 x114 +1 x119 +1 x121
  +1 x124 +1 x129 +1 x133 +1 x136 +1 x137 +1 x142 +1 x143 +1 x144 >= +1
 c86: +1 x4 +1 x11 +1 x17 +1 x18 +1 x35 +1 x39 +1 x40 +1 x41 +1 x44 +1 x47 +1 x49 +1 x59 +1 x65 +1 x68
  +1 x71 +1 x75 +1 x77 +1 x81 +1 x88 +1 x89 +1 x90 +1 x91 +1 x92 +1 x93 +1 x96 +1 x98 +1 x110 +1 x115
  +1 x116 +1 x124 +1 x128 +1 x131 +1 x135 +1 x148 >= +1
 c87: +1 x2 +1 x6 +1 x8 +1 x10 +1 x13 +1 x16 +1 x18 +1 x21 +1 x22 +1 x23 +1 x29 +1 x33 +1 x37 +1 x39 +1 x40
  +1 x44 +1 x48 +1 x49 +1 x51 +1 x60 +1 x65 +1 x67 +1 x69 +1 x75 +1 x77 +1 x78 +1 x79 +1 x89 +1 x108 +1 x113
  +1 x124 +1 x128 +1 x133 +1 x134 +1 x140 >= +1
 c88: +1 x2 +1 x6 +1 x9 +1 x14 +1 x22 +1 x25 +1 x26 +1 x29 +1 x34 +1 x37 +1 x43 +1 x53 +1 x54 +1 x57 +1 x58
  +1 x62 +1 x63 +1 x65 +1 x68 +1 x75 +1 x83 +1 x84 +1 x88 +1 x91 +1 x92 +1 x95 +1 x97 +1 x106 +1 x112
  +1 x115 +1 x116 +1 x120 +1 x123 +1 x141 +1 x143 +1 x144 +1 x148 >= +1
 c89: +1 x2 +1 x5 +1 x7 +1 x9 +1 x26 +1 x32 +1 x34 +1 x43 +1 x46 +1 x48 +1 x51 +1 x53 +1 x54 +1 x60 +1 x69
  +1 x71 +1 x72 +1 x78 +1 x85 +1 x89 +1 x92 +1 x93 +1 x95 +1 x102 +1 x103 +1 x113 +1 x117 +1 x121 +1 x123
  +1 x137 +1 x138 +1 x144 +1 x145 +1 x147 +1 x148 >= +1
 c90: +1 x1 +1 x6 +1 x12 +1 x13 +1 x27 +1 x31 +1 x35 +1 x38 +1 x47 +1 x50 +1 x53 +1 x54 +1 x57 +1 x59
  +1 x60 +1 x61 +1 x63 +1 x67 +1 x74 +1 x78 +1 x82 +1 x94 +1 x102 +1 x105 +1 x109 +1 x117 +1 x122 +1 x132
  +1 x134 +1 x140 +1 x145 +1 x148 >= +1
 c91: +1 x4 +1 x6 +1 x16 +1 x18 +1 x21 +1 x23 +1 x24 +1 x34 +1 x36 +1 x39 +1 x40 +1 x45 +1 x47 +1 x48
  +1 x63 +1 x67 +1 x74 +1 x75 +1 x78 +1 x79 +1 x82 +1 x86 +1 x87 +1 x91 +1 x103 +1 x104 +1 x118 +1 x126
  +1 x133 +1 x140 +1 x141 +1 x143 +1 x144 >= +1
 c92: +1 x2 +1 x20 +1 x28 +1 x36 +1 x37 +1 x39 +1 x47 +1 x48 +1 x52 +1 x53 +1 x54 +1 x63 +1 x64 +1 x69
  +1 x72 +1 x88 +1 x93 +1 x94 +1 x95 +1 x97 +1 x100 +1 x104 +1 x106 +1 x108 +1 x109 +1 x111 +1 x119 +1 x122
  +1 x125 +1 x134 +1 x143 +1 x145 +1 x146 >= +1
 c93: +1 x3 +1 x6 +1 x8 +1 x11 +1 x36 +1 x38 +1 x41 +1 x47 +1 x49 +1 x51 +1 x58 +1 x60 +1 x65 +1 x67 +1 x71
  +1 x75 +1 x76 +1 x87 +1 x91 +1 x95 +1 x96 +1 x97 +1 x113 +1 x116 +1 x124 +1 x125 +1 x126 +1 x128 +1 x133
  +1 x135 +1 x141 +1 x143 +1 x144 >= +1
 c94: +1 x0 +1 x6 +1 x12 +1 x24 +1 x37 +1 x40 +1 x46 +1 x50 +1 x58 +1 x65 +1 x70 +1 x75 +1 x83 +1 x84
  +1 x86 +1 x90 +1 x91 +1 x92 +1 x93 +1 x99 +1 x103 +1 x105 +1 x109 +1 x120 +1 x124 +1 x126 +1 x128 +1 x134
  +1 x142 +1 x147 +1 x148 +1 x149 >= +1
 c95: +1 x4 +1 x5 +1 x7 +1 x8 +1 x9 +1 x39 +1 x40 +1 x41 +1 x45 +1 x54 +1 x55 +1 x63 +1 x65 +1 x69 +1 x75
  +1 x79 +1 x81 +1 x84 +1 x98 +1 x111 +1 x117 +1 x127 +1 x129 +1 x132 +1 x133 +1 x135 +1 x143 +1 x144
  +1 x148 >= +1
 c96: +1 x1 +1 x4 +1 x10 +1 x12 +1 x27 +1 x33 +1 x34 +1 x37 +1 x41 +1 x46 +1 x54 +1 x58 +1 x64 +1 x65
  +1 x67 +1 x72 +1 x75 +1 x84 +1 x98 +1 x106 +1 x111 +1 x113 +1 x114 +1 x127 +1 x128 +1 x133 +1 x140 +1 x143
  +1 x145 >= +1
 c97: +1 x1 +1 x4 +1 x7 +1 x12 +1 x14 +1 x20 +1 x21 +1 x27 +1 x29 +1 x32 +1 x45 +1 x48 +1 x58 +1 x61 +1 x62
  +1 x63 +1 x71 +1 x77 +1 x81 +1 x91 +1 x96 +1 x97 +1 x98 +1 x99 +1 x105 +1 x108 +1 x109 +1 x110 +1 x120
  +1 x121 +1 x123 +1 x132 +1 x133 +1 x149 >= +1
 c98: +1 x4 +1 x6 +1 x9 +1 x10 +1 x12 +1 x14 +1 x17 +1 x32 +1 x38 +1 x39 +1 x42 +1 x56 +1 x74 +1 x78 +1 x87
  +1 x92 +1 x103 +1 x105 +1 x110 +1 x130 +1 x134 +1 x146 +1 x148 >= +1
 c99: +1 x1 +1 x4 +1 x6 +1 x21 +1 x24 +1 x26 +1 x30 +1 x37 +1 x39 +1 x55 +1 x59 +1 x60 +1 x62 +1 x73 +1 x78
  +1 x86 +1 x89 +1 x95 +1 x98 +1 x105 +1 x106 +1 x109 +1 x112 +1 x120 +1 x131 +1 x132 +1 x134 +1 x140
  +1 x143 +1 x148 +1 x149 >= +1
Bounds
 0 <= x0 <= 1
 0 <= x1 <= 1
 0 <= x2 <= 1
 0 <= x3 <= 1
 0 <= x4 <= 1
 0 <= x5 <= 1
 0 <= x6 <= 1
 0 <= x7 <= 1
 0 <= x8 <= 1
 0 <= x9 <= 1
 0 <= x10 <= 1
 0 <= x11 <= 1
 0 <= x12 <= 1
 0 <= x13 <= 1
 0 <= x14 <= 1
 0 <= x15 <= 1
 0 <= x16 <= 1
 0 <= x17 <= 1
 0 <= x18 <= 1
 0 <= x19 <= 1
 0 <= x20 <= 1
 0 <= x21 <= 1
 0 <= x22 <= 1
 0 <= x23 <= 1
 0 <= x24 <= 1
 0 <= x25 <= 1
 0 <= x26 <= 1
 0 <= x27 <= 1
 0 <= x28 <= 1
 0 <= x29 <= 1
 0 <= x30 <= 1
 0 <= x31 <= 1
 0 <= x32 <= 1
 0 <= x33 <= 1
 0 <= x34 <= 1
 0 <= x35 <= 1
 0 <= x36 <= 1
 0 <= x37 <= 1
 0 <= x38 <= 1
 0 <= x39 <= 1
 0 <= x40 <= 1
 0 <= x41 <= 1
 0 <= x42 <= 1
 0 <= x43 <= 1
 0 <= x44 <= 1
 0 <= x45 <= 1
 0 <= x46 <= 1
 0 <= x47 <= 1
 0 <= x48 <= 1
 0 <= x49 <= 1
 0 <= x50 <= 1
 0 <= x51 <= 1
 0 <= x52 <= 1
 0 <= x53 <= 1
 0 <= x54 <= 1
 0 <= x55 <= 1
 0 <= x56 <= 1
 0 <= x57 <= 1
 0 <= x58 <= 1
 0 <= x59 <= 1
 0 <= x60 <= 1
 0 <= x61 <= 1
 0 <= x62 <= 1
 0 <= x63 <= 1
 0 <= x64 <= 1
 0 <= x65 <= 1
 0 <= x66 <= 1
 0 <= x67 <= 1
 0 <= x68 <= 1
 0 <= x69 <= 1
 0 <= x70 <= 1
 0 <= x71 <= 1
 0 <= x72 <= 1
 0 <= x73 <= 1
 0 <= x74 <= 1
 0 <= x75 <= 1
 0 <= x76 <= 1
 0 <= x77 <= 1
 0 <= x78 <= 1
 0 <= x79 <= 1
 0 <= x80 <= 1
 0 <= x81 <= 1
 0 <= x82 <= 1
 0 <= x83 <= 1
 0 <= x84 <= 1
 0 <= x85 <= 1
 0 <= x86 <= 1
 0 <= x87 <= 1
 0 <= x88 <= 1
 0 <= x89 <= 1
 0 <= x90 <= 1
 0 <= x91 <= 1
 0 <= x92 <= 1
 0 <= x93 <= 1
 0 <= x94 <= 1
 0 <= x95 <= 1
 0 <= x96 <= 1
 0 <= x97 <= 1
 0 <= x98 <= 1
 0 <= x99 <= 1
 0 <= x100 <= 1
 0 <= x101 <= 1
 0 <= x102 <= 1
 0 <= x103 <= 1
 0 <= x104 <= 1
 0 <= x105 <= 1
 0 <= x106 <= 1
 0 <= x107 <= 1
 0 <= x108 <= 1
 0 <= x109 <= 1
 0 <= x110 <= 1
 0 <= x111 <= 1
 0 <= x112 <= 1
 0 <= x113 <= 1
 0 <= x114 <= 1
 0 <= x115 <= 1
 0 <= x116 <= 1
 0 <= x117 <= 1
 0 <= x118 <= 1
 0 <= x119 <= 1
 0 <= x120 <= 1
 0 <= x121 <= 1
 0 <= x122 <= 1
 0 <= x123 <= 1
 0 <= x124 <= 1
 0 <= x125 <= 1
 0 <= x126 <= 1
 0 <= x127 <= 1
 0 <= x128 <= 1
 0 <= x129 <= 1
 0 <= x130 <= 1
 0 <= x131 <= 1
 0 <= x132 <= 1
 0 <= x133 <= 1
 0 <= x134 <= 1
 0 <= x135 <= 1
 0 <= x136 <= 1
 0 <= x137 <= 1
 0 <= x138 <= 1
 0 <= x139 <= 1
 0 <= x140 <= 1
 0 <= x141 <= 1
 0 <= x142 <= 1
 0 <= x143 <= 1
 0 <= x144 <= 1
 0 <= x145 <= 1
 0 <= x146 <= 1
 0 <= x147 <= 1
 0 <= x148 <= 1
 0 <= x149 <= 1
Binaries
 x0 x1 x2 x3 x4 x5 x6 x7 x8 x9 x10 x11 x12 x13 x14 x15 x16 x17 x18 x19 x20 x21 x22 x23 x24 x25 x26 x27
 x28 x29 x30 x31 x32 x33 x34 x35 x36 x37 x38 x39 x40 x41 x42 x43 x44 x45 x46 x47 x48 x49 x50 x51 x52 x53
 x54 x55 x56 x57 x58 x59 x60 x61 x62 x63 x64 x65 x66 x67 x68 x69 x70 x71 x72 x73 x74 x75 x76 x77 x78 x79
 x80 x81 x82 x83 x84 x85 x86 x87 x88 x89 x90 x91 x92 x93 x94 x95 x96 x97 x98 x99 x100 x101 x102 x103 x104
 x105 x106 x107 x108 x109 x110 x111 x112 x113 x114 x115 x116 x117 x118 x119 x120 x121 x122 x123 x124 x125
 x126 x127 x128 x129 x130 x131 x132 x133 x134 x135 x136 x137 x138 x139 x140 x141 x142 x143 x144 x145 x146
 x147 x148 x149
End
